# Objective value = 2.3333333333333334e-01
A_0_0 0
A_1_0 0
A_1_1 0
A_2_0 1
A_2_1 -1.3333333333333333e+00
A_2_2 1
z1_0 0
z1_1 0
z1_2 0
z1_3 0
z1_4 0
z2_0 1
z2_1 6.6666666666666674e-01
z2_2 3.3333333333333337e-01
z2_3 0
z2_4 3.3333333333333326e-01
z3_0 0
z3_1 0
z3_2 0
z3_3 0
z3_4 0
z4_0 1
z4_1 6.6666666666666674e-01
z4_2 3.3333333333333337e-01
z4_3 0
z4_4 3.3333333333333326e-01
